qbf_easy_train/easy_930_SAT.qdimacs
p cnf 21 48
a 9 3 0
e 1 2 4 5 6 7 8 10 11 12 13 14 15 16 17 18 19 20 21 0
-2 1 0
-2 -1 0
-2 -3 -4 0
2 3 -4 0
-2 3 4 0
2 -3 4 0
-5 2 -6 0
5 -2 -6 0
-5 -2 6 0
5 2 6 0
8 -2 0
8 -1 0
2 1 -8 0
7 -8 -9 0
-7 8 -9 0
7 8 9 0
-7 -8 9 0
11 9 0
11 -10 0
-9 10 -11 0
12 -6 0
12 11 0
6 -11 -12 0
-13 -7 -14 0
13 7 -14 0
-13 7 14 0
13 -7 14 0
-17 15 0
-17 -16 0
-15 16 17 0
17 13 -18 0
-17 -13 -18 0
17 -13 18 0
-17 13 18 0
19 14 0
19 -18 0
-14 18 -19 0
-20 12 0
-20 -19 0
-12 19 20 0
21 4 0
21 -20 0
-4 20 -21 0
-8 19 5 -14 0
-20 -13 17 15 -4 0
-8 17 7 -12 0
-4 -11 6 -20 3 8 0
21 0
