sat_easy_train/easy_930_SAT.dimacs
p cnf 110 363
-3 -1 0
-3 2 0
1 -2 3 0
-6 -4 0
-6 -5 0
4 5 6 0
7 -8 -9 0
-7 8 -9 0
7 8 9 0
-7 -8 9 0
-10 -2 0
-10 9 0
2 -9 10 0
11 6 0
11 10 0
-6 -10 -11 0
-12 -2 -13 0
12 2 -13 0
-12 2 13 0
12 -2 13 0
-14 2 0
-14 -13 0
-2 13 14 0
-15 -14 0
-15 -9 0
14 9 15 0
17 -12 0
17 -16 0
12 16 -17 0
-19 -18 0
-19 9 0
18 -9 19 0
16 -19 -20 0
-16 19 -20 0
16 19 20 0
-16 -19 20 0
-21 20 0
-21 -20 0
-22 -17 0
-22 21 0
17 -21 22 0
-23 22 0
-23 20 0
-22 -20 23 0
-15 23 -24 0
15 -23 -24 0
-15 -23 24 0
15 23 24 0
11 24 -25 0
-11 -24 -25 0
11 -24 25 0
-11 24 25 0
12 4 -26 0
-12 -4 -26 0
12 -4 26 0
-12 4 26 0
-26 -27 -28 0
26 27 -28 0
-26 27 28 0
26 -27 28 0
-23 28 -29 0
23 -28 -29 0
-23 -28 29 0
23 28 29 0
-19 18 -30 0
19 -18 -30 0
-19 -18 30 0
19 18 30 0
-31 29 0
-31 -30 0
-29 30 31 0
-25 31 -32 0
25 -31 -32 0
-25 -31 32 0
25 31 32 0
33 3 0
33 32 0
-3 -32 -33 0
35 34 0
35 20 0
-34 -20 -35 0
38 36 0
38 37 0
-36 -37 -38 0
-38 19 -39 0
38 -19 -39 0
-38 -19 39 0
38 19 39 0
-4 -20 -40 0
4 20 -40 0
-4 20 40 0
4 -20 40 0
41 40 0
41 23 0
-40 -23 -41 0
-42 39 0
-42 41 0
-39 -41 42 0
35 -42 -43 0
-35 42 -43 0
35 42 43 0
-35 -42 43 0
-44 -33 0
-44 43 0
33 -43 44 0
45 -7 0
45 -19 0
7 19 -45 0
46 -23 0
46 -45 0
23 45 -46 0
47 36 0
47 -9 0
-36 9 -47 0
-21 47 -48 0
21 -47 -48 0
-21 -47 48 0
21 47 48 0
49 17 0
49 -1 0
-17 1 -49 0
-50 -13 0
-50 7 0
13 -7 50 0
-51 49 0
-51 50 0
-49 -50 51 0
52 -51 0
52 -6 0
51 6 -52 0
-53 7 0
-53 -23 0
-7 23 53 0
53 13 -54 0
-53 -13 -54 0
53 -13 54 0
-53 13 54 0
52 54 -55 0
-52 -54 -55 0
52 -54 55 0
-52 54 55 0
-56 -48 0
-56 55 0
48 -55 56 0
57 -37 0
57 -19 0
37 19 -57 0
-58 -56 0
-58 -57 0
56 57 58 0
-59 4 0
-59 15 0
-4 -15 59 0
58 59 -60 0
-58 -59 -60 0
58 -59 60 0
-58 59 60 0
-61 8 0
-61 -9 0
-8 9 61 0
-62 61 0
-62 6 0
-61 -6 62 0
4 -62 -63 0
-4 62 -63 0
4 62 63 0
-4 -62 63 0
62 61 -64 0
-62 -61 -64 0
62 -61 64 0
-62 61 64 0
-63 64 -65 0
63 -64 -65 0
-63 -64 65 0
63 64 65 0
-13 -65 -66 0
13 65 -66 0
-13 65 66 0
13 -65 66 0
68 47 0
68 67 0
-47 -67 -68 0
-66 -68 -69 0
66 68 -69 0
-66 68 69 0
66 -68 69 0
18 -8 -70 0
-18 8 -70 0
18 8 70 0
-18 -8 70 0
70 -20 -71 0
-70 20 -71 0
70 20 71 0
-70 -20 71 0
72 69 0
72 -71 0
-69 71 -72 0
-60 -72 -73 0
60 72 -73 0
-60 72 73 0
60 -72 73 0
74 -46 0
74 -73 0
46 73 -74 0
-1 -40 -75 0
1 40 -75 0
-1 40 75 0
1 -40 75 0
75 53 -76 0
-75 -53 -76 0
75 -53 76 0
-75 53 76 0
9 16 -77 0
-9 -16 -77 0
9 -16 77 0
-9 16 77 0
-78 36 0
-78 -22 0
-36 22 78 0
-79 77 0
-79 78 0
-77 -78 79 0
75 16 -80 0
-75 -16 -80 0
75 -16 80 0
-75 16 80 0
-81 63 0
-81 -78 0
-63 78 81 0
82 -80 0
82 -81 0
80 81 -82 0
83 19 0
83 -22 0
-19 22 -83 0
84 83 0
84 -4 0
-83 4 -84 0
-82 84 -85 0
82 -84 -85 0
-82 -84 85 0
82 84 85 0
79 -85 -86 0
-79 85 -86 0
79 85 86 0
-79 -85 86 0
-87 -2 0
-87 -17 0
2 17 87 0
86 87 -88 0
-86 -87 -88 0
86 -87 88 0
-86 87 88 0
-89 -76 0
-89 88 0
76 -88 89 0
-90 -40 0
-90 -48 0
40 48 90 0
91 -19 0
91 22 0
19 -22 -91 0
91 5 -92 0
-91 -5 -92 0
91 -5 92 0
-91 5 92 0
-90 92 -93 0
90 -92 -93 0
-90 -92 93 0
90 92 93 0
94 34 0
94 2 0
-34 -2 -94 0
96 -8 -97 0
-96 8 -97 0
96 8 97 0
-96 -8 97 0
-98 95 0
-98 97 0
-95 -97 98 0
47 -99 0
-47 -99 0
-100 -98 0
-100 99 0
98 -99 100 0
-101 -94 0
-101 -100 0
94 100 101 0
102 -93 0
102 -101 0
93 101 -102 0
103 -89 0
103 102 0
89 -102 -103 0
-104 -74 0
-104 -103 0
74 103 104 0
-105 -15 0
-105 6 0
15 -6 105 0
106 -16 0
106 -105 0
16 105 -106 0
107 -26 0
107 22 0
26 -22 -107 0
-108 106 0
-108 107 0
-106 -107 108 0
-109 104 0
-109 108 0
-104 -108 109 0
110 44 0
110 109 0
-44 -109 -110 0
-58 -88 4 81 21 95 0
61 -101 39 -73 -94 0
73 29 -95 0
-43 -49 -19 -40 -48 -42 0
2 -1 -6 -93 75 0
-13 -96 0
23 95 -108 43 -74 103 0
75 -105 0
-93 -73 -59 66 0
77 103 -47 0
-38 -29 -7 48 70 -91 0
10 -44 19 27 0
49 -81 -56 -73 0
14 107 79 31 -62 -109 0
89 82 -75 -30 83 0
-109 5 -46 -45 0
95 94 0
-25 -14 43 19 0
-96 5 0
17 96 -84 0
-16 -48 -75 0
60 -92 18 91 0
97 -85 86 94 29 0
-7 -1 0
-9 -46 -14 0
2 46 -109 0
67 -54 103 -79 0
-108 -11 76 15 99 0
-100 11 0
7 -46 -66 -44 13 17 0
76 93 97 0
-91 54 -47 21 0
78 -12 -90 0
-102 -74 -110 101 68 0
-21 49 22 -42 0
-13 85 0
2 30 0
-108 -74 -58 -49 0
74 -76 -51 0
26 -65 29 104 0
-22 -79 -12 55 0
101 -24 -38 0
-28 97 -47 19 0
-104 64 -51 -40 38 62 0
2 91 -5 -66 22 0
-107 105 96 -16 -54 0
66 -47 94 0
110 0
